(declare-const a Real)
(declare-const b Real)
(declare-const c Real)
(assert (> a 0))
(assert (> b 0))
(assert (> c 0))
(assert (not (<= (+ (pow (* (+ 1 (pow b 4)) (+ (pow (+ (pow a 3) (pow b 3) (pow c 3)) 2) (* 9 (pow a 2)))) (/ 1 2)) (* 3 a (pow c 2)) (* 3 b (pow a 2)) (* 3 b (pow c 2)) (* 3 c (pow a 2)) (* 3 c (pow b 2)) (* -1 (+ 3 (pow a 5) (* -1 (pow a 2))) (+ 3 (pow b 5) (* -1 (pow b 2))) (+ 3 (pow c 5) (* -1 (pow c 2)))) (* 6 a b c)) 0)))
(check-sat)
(get-model)
(exit)